c ---- [ banner ] ------------------------------------------------------------
c
c Kissat SAT Solver
c 
c Copyright (c) 2021-2024 Armin Biere University of Freiburg
c Copyright (c) 2019-2021 Armin Biere Johannes Kepler University Linz
c 
c Version 4.0.1 43f02cf3e992cb44653b35e5cb26f93281552ae0
c gcc (Ubuntu 13.2.0-23ubuntu4) 13.2.0 -W -Wall -O3 -DNDEBUG
c Thu Sep 12 12:27:46 CEST 2024 Linux abryzen9 6.8.0-41-generic x86_64
c
c ---- [ parsing ] -----------------------------------------------------------
c
c opened and reading DIMACS file:
c
c   /data/artifact/AMulet2.0_artifact/exp4/cnf_dc2_64/64_64_U2_DT_RC_Multgen_dc2.cnf
c
c parsed 'p cnf 33777 151790' header
c closing input after reading 3079218 bytes (3 MB)
c finished parsing after 0.03 seconds
c
c ---- [ options ] -----------------------------------------------------------
c
c --stable=0                       (different from default '1')
c
c ---- [ solving ] -----------------------------------------------------------
c
c  seconds switched rate     size/glue tier1  binary          remaining
c         MB reductions conflicts size  tier2    irredundant
c          level restarts redundant glue  trail          variables
c
c *  0.03 13 0 0 0  0 0   0   0 0.0 0 0 0 0 0% 1996 149792 33774 100%
c (  0.04 17 0 0 0  0 0   0   0 0.0 0 0 0 0 0% 1996 149792 33774 100%
c .  0.05 17 0 0 0  0 0   0   0 0.0 0 0 0 0 0% 1992 149792 33774 100%
c c  0.13 25 0 0 0  0 0   0   0 0.0 0 0 0 0 0% 15463 122860 27039 80%
c d  0.14 25 0 0 0  0 0   0   0 0.0 0 0 0 0 0% 1991 122860 27039 80%
c =  0.20 25 0 0 0  0 0   0   0 0.0 0 0 0 0 0% 2721 122860 26671 79%
c d  0.20 25 0 0 0  0 0   0   0 0.0 0 0 0 0 0% 1985 122860 26671 79%
c f  0.34 24 0 0 0  0 0   0   0 0.0 0 0 0 0 0% 8328 113278 29859 88%
c e  0.57 26 0 0 0  0 0   0   0 0.0 0 0 0 0 0% 1269 122841 20007 59%
c )  0.57 26 0 0 0  0 0   0   0 0.0 0 0 0 0 0% 1269 122841 20007 59%
c {  0.60 26 0 0 0  0 0   0   0 0.0 0 0 2 6 0% 1269 122841 20007 59%
c -  0.78 28 162 0 1 91 23 1000 800 2.6 13 5 3 9 20% 1282 122841 20007 59%
c -  1.10 28 238 0 2 210 34 2002 1571 3.6 19 5 3 9 24% 1292 122841 20007 59%
c c  1.36 28 300 0 2 293 37 2505 1981 3.3 25 8 3 10 24% 1995 120057 19656 58%
c d  1.37 28 300 0 2 293 37 2505 1969 3.3 25 8 3 10 24% 1293 120057 19656 58%
c u  1.40 28 300 0 2 293 37 2505 1725 3.3 25 8 3 10 24% 1297 120057 19656 58%
c v  1.42 28 300 0 2 293 37 2505 1471 3.3 25 8 3 10 24% 1297 120057 19656 58%
c w  1.45 28 300 0 2 293 37 2505 1470 3.3 25 8 3 10 24% 1297 120057 19656 58%
c x  1.47 28 300 0 2 293 37 2505 1470 3.3 25 8 3 10 24% 1297 120013 19656 58%
c =  1.54 28 300 0 2 293 37 2505 1470 3.3 25 8 3 10 24% 1639 120013 19485 58%
c
c  seconds   switched   rate       size/glue tier1     binary          remaining
c         MB  reductions conflicts       size  tier2      irredundant
c           level restarts    redundant    glue    trail          variables
c
c d  1.55 28 300 0 2 293 37 2505 1466 3.3 25 8 3 10 24% 1292 120013 19484 58%
c t  1.57 28 300 0 2 293 37 2505 1466 3.3 25 8 3 10 24% 1276 120013 19484 58%
c f  1.60 28 300 0 2 293 37 2505 1466 3.3 25 8 3 10 24% 1312 119959 19502 58%
c c  1.68 28 300 0 2 293 37 2505 1465 3.3 25 8 3 10 24% 1314 119951 19501 58%
c d  1.68 28 300 0 2 293 37 2505 1465 3.3 25 8 3 10 24% 1312 119951 19501 58%
c u  1.71 28 300 0 2 293 37 2505 1426 3.3 25 8 3 10 24% 1313 119951 19501 58%
c v  1.72 28 300 0 2 293 37 2505 1378 3.3 25 8 3 10 24% 1313 119951 19501 58%
c w  1.79 28 300 0 2 293 37 2505 1368 3.3 25 8 3 10 24% 1313 119951 19501 58%
c =  1.87 28 300 0 2 293 37 2505 1368 3.3 25 8 3 10 24% 1403 119951 19456 58%
c d  1.88 28 300 0 2 293 37 2505 1365 3.3 25 8 3 10 24% 1310 119951 19456 58%
c t  1.90 28 300 0 2 293 37 2505 1365 3.3 25 8 3 10 24% 1297 119951 19456 58%
c f  1.93 28 300 0 2 293 37 2505 1365 3.3 25 8 3 10 24% 1341 119885 19478 58%
c -  2.10 28 290 0 3 322 34 3416 1933 3.0 22 7 3 11 26% 1354 119885 19478 58%
c -  2.52 28 331 0 4 444 33 5151 3152 3.1 22 7 3 11 28% 1371 119885 19478 58%
c -  3.24 28 324 0 5 682 34 7151 4328 3.5 25 7 2 11 29% 1402 119885 19478 58%
c d  3.39 28 318 0 5 725 33 7712 4860 3.4 25 7 2 11 30% 1399 119885 19473 58%
c u  3.42 28 318 0 5 725 33 7712 4564 3.4 25 7 2 11 30% 1401 119885 19473 58%
c v  3.47 28 318 0 5 725 33 7712 3746 3.4 25 7 2 11 30% 1402 119885 19473 58%
c w  3.50 28 318 0 5 725 33 7712 3736 3.4 25 7 2 11 30% 1402 119885 19473 58%
c x  3.55 28 318 0 5 725 33 7712 3736 3.4 25 7 2 11 30% 1402 119263 19473 58%
c
c  seconds   switched   rate       size/glue tier1     binary          remaining
c         MB  reductions conflicts       size  tier2      irredundant
c           level restarts    redundant    glue    trail          variables
c
c =  3.71 28 318 0 5 725 33 7712 3736 3.4 25 7 2 11 30% 2100 119263 19124 57%
c d  3.72 28 318 0 5 725 33 7712 3714 3.4 25 7 2 11 30% 1389 119263 19124 57%
c t  3.73 28 318 0 5 725 33 7712 3714 3.4 25 7 2 11 30% 1384 119263 19124 57%
c f  3.78 28 318 0 5 725 33 7712 3714 3.4 25 7 2 11 30% 1422 119205 19143 57%
c u  3.89 28 318 0 5 725 33 7712 3650 3.4 25 7 2 11 30% 1422 119205 19143 57%
c v  3.92 28 318 0 5 725 33 7712 3524 3.4 25 7 2 11 30% 1422 119205 19143 57%
c w  3.95 28 318 0 5 725 33 7712 3510 3.4 25 7 2 11 30% 1422 119205 19143 57%
c x  4.00 28 318 0 5 725 33 7712 3510 3.4 25 7 2 11 30% 1424 117469 19143 57%
c =  4.16 28 318 0 5 725 33 7712 3510 3.4 25 7 2 11 30% 1548 117469 19081 56%
c d  4.17 28 318 0 5 725 33 7712 3505 3.4 25 7 2 11 30% 1422 117469 19081 56%
c t  4.18 28 318 0 5 725 33 7712 3505 3.4 25 7 2 11 30% 1405 117469 19081 56%
c f  4.22 28 318 0 5 725 33 7712 3505 3.4 25 7 2 11 30% 1427 117436 19092 57%
c -  4.48 28 322 0 6 818 32 9387 4392 3.4 23 7 2 10 27% 1484 117436 19092 57%
c o  4.59 28 337 0 6 850 32 10032 4970 3.4 23 7 2 10 27% 1493 117436 19092 57%
c -  5.08 28 314 0 7 1010 32 11836 5806 3.5 23 7 2 9 28% 1559 117436 19092 57%
c s  5.30 28 314 0 7 1041 31 12520 6391 3.6 24 7 2 9 28% 1579 114205 19092 57%
c e  5.42 28 314 0 7 1041 31 12520 6391 3.6 24 7 2 9 28% 1167 114452 18801 56%
c s  5.42 28 314 0 7 1041 31 12520 6391 3.6 24 7 2 9 28% 1167 114117 18801 56%
c ^  5.43 28 314 0 7 1041 31 12520 6391 3.6 24 7 2 9 28% 1167 114117 18801 56%
c -  5.73 28 313 0 8 1124 31 14482 7056 3.6 23 6 2 9 27% 1221 114117 18801 56%
c
c  seconds   switched    rate        size/glue tier1    binary          remaining
c         MB  reductions   conflicts       size  tier2     irredundant
c           level  restarts     redundant    glue   trail          variables
c
c d  5.93 28 312 0 8 1197 31 15796 8216 3.6 23 6 2 9 26% 1221 114117 18786 56%
c u  5.97 28 312 0 8 1197 31 15796 7638 3.6 23 6 2 9 26% 1230 114117 18786 56%
c v  6.02 28 312 0 8 1197 31 15796 6960 3.6 23 6 2 9 26% 1230 114117 18786 56%
c w  6.05 28 312 0 8 1197 31 15796 6960 3.6 23 6 2 9 26% 1230 114117 18786 56%
c x  6.08 28 312 0 8 1197 31 15796 6960 3.6 23 6 2 9 26% 1242 113970 18786 56%
c =  6.22 28 312 0 8 1197 31 15796 6960 3.6 23 6 2 9 26% 2292 113970 18261 54%
c d  6.23 28 312 0 8 1197 31 15796 6925 3.6 23 6 2 9 26% 1222 113970 18261 54%
c t  6.25 28 312 0 8 1197 31 15796 6925 3.6 23 6 2 9 26% 1211 113970 18261 54%
c f  6.29 28 312 0 8 1197 31 15796 6925 3.6 23 6 2 9 26% 1221 113948 18267 54%
c u  6.34 28 312 0 8 1197 31 15796 6819 3.6 23 6 2 9 26% 1226 113948 18267 54%
c v  6.38 28 312 0 8 1197 31 15796 6341 3.6 23 6 2 9 26% 1226 113948 18267 54%
c w  6.43 28 312 0 8 1197 31 15796 6332 3.6 23 6 2 9 26% 1226 113948 18267 54%
c x  6.46 28 312 0 8 1197 31 15796 6332 3.6 23 6 2 9 26% 1226 112788 18267 54%
c =  6.62 28 312 0 8 1197 31 15796 6332 3.6 23 6 2 9 26% 3528 112788 17116 51%
c d  6.63 28 312 0 8 1197 31 15796 6276 3.6 23 6 2 9 26% 1175 112788 17114 51%
c f  6.69 28 312 0 8 1197 31 15796 6276 3.6 23 6 2 9 26% 1179 112780 17116 51%
c -  7.06 28 307 0 9 1309 30 17310 6884 3.6 23 6 2 8 26% 1221 112780 17116 51%
c o  7.67 28 290 0 9 1491 30 20131 9238 3.6 23 6 2 8 27% 1290 112780 17116 51%
c -  7.79 28 290 0 10 1539 31 20310 8610 3.7 24 6 2 8 27% 1290 112780 17116 51%
c -  8.55 28 285 0 11 1758 30 23474 10231 3.5 24 7 2 7 27% 1347 112780 17116 51%
c
c  seconds   switched     rate         size/glue tier1    binary          remaining
c         MB   reductions   conflicts        size  tier2     irredundant
c           level   restarts      redundant    glue   trail          variables
c
c s  8.94 28 276 0 11 1875 30 25029 11559 3.5 24 7 2 7 27% 1392 102769 17116 51%
c e  9.02 28 276 0 11 1875 30 25029 11559 3.5 24 7 2 7 27% 1066 103004 16910 50%
c s  9.02 28 276 0 11 1875 30 25029 11559 3.5 24 7 2 7 27% 1082 102541 16910 50%
c ^  9.02 28 276 0 11 1875 30 25029 11559 3.5 24 7 2 7 27% 1082 102541 16910 50%
c -  9.29 28 274 0 12 2003 29 26790 11203 3.5 24 7 2 7 27% 1114 102541 16910 50%
c c  9.35 28 274 0 12 2019 29 26928 11336 3.5 24 7 2 7 27% 1155 102327 16879 50%
c d  9.36 28 274 0 12 2019 29 26928 11307 3.5 24 7 2 7 27% 1088 102327 16876 50%
c u  9.39 28 274 0 12 2019 29 26928 10251 3.5 24 7 2 7 27% 1102 102327 16876 50%
c v  9.42 28 274 0 12 2019 29 26928 9025 3.5 24 7 2 7 27% 1105 102327 16876 50%
c w  9.43 28 274 0 12 2019 29 26928 9018 3.5 24 7 2 7 27% 1105 102327 16876 50%
c x  9.46 28 274 0 12 2019 29 26928 9018 3.5 24 7 2 7 27% 1105 102245 16876 50%
c =  9.65 28 274 0 12 2019 29 26928 9018 3.5 24 7 2 7 27% 4199 102245 15329 45%
c d  9.66 28 274 0 12 2019 29 26928 8741 3.5 24 7 2 7 27% 933 102245 15329 45%
c t  9.66 28 274 0 12 2019 29 26928 8741 3.5 24 7 2 7 27% 912 102245 15329 45%
c f  9.70 28 274 0 12 2019 29 26928 8741 3.5 24 7 2 7 27% 921 102216 15333 45%
c u  9.74 28 274 0 12 2019 29 26928 8450 3.5 24 7 2 7 27% 925 102216 15333 45%
c v  9.76 28 274 0 12 2019 29 26928 8244 3.5 24 7 2 7 27% 927 102216 15333 45%
c w  9.78 28 274 0 12 2019 29 26928 8238 3.5 24 7 2 7 27% 927 102216 15333 45%
c =  9.99 28 274 0 12 2019 29 26928 8238 3.5 24 7 2 7 27% 2073 102216 14760 44%
c d 10.00 28 274 0 12 2019 29 26928 8185 3.5 24 7 2 7 27% 908 102216 14759 44%
c
c  seconds   switched     rate        size/glue tier1   binary          remaining
c         MB   reductions   conflicts       size  tier2    irredundant
c           level   restarts     redundant    glue   trail         variables
c
c t 10.02 28 274 0 12 2019 29 26928 8185 3.5 24 7 2 7 27% 907 102216 14759 44%
c f 10.05 28 274 0 12 2019 29 26928 8185 3.5 24 7 2 7 27% 915 102195 14763 44%
c - 10.97 28 267 0 13 2344 29 30254 10219 3.5 25 7 2 7 28% 930 102195 14763 44%
c - 11.38 28 251 0 14 2465 27 33859 12095 3.4 24 7 2 6 26% 988 102195 14763 44%
c - 12.16 28 247 0 15 2728 27 37602 13900 3.3 23 7 2 6 26% 1006 102195 14763 44%
c o 12.83 28 244 0 15 2980 27 40131 16209 3.3 24 7 2 6 27% 1020 102195 14763 44%
c c 13.29 28 241 0 15 3130 27 41254 17163 3.3 24 7 2 6 27% 1082 101920 14720 44%
c d 13.29 28 241 0 15 3130 27 41254 17057 3.3 24 7 2 6 27% 996 101920 14720 44%
c u 13.37 28 241 0 15 3130 27 41254 15170 3.3 24 7 2 6 27% 1007 101920 14720 44%
c v 13.42 28 241 0 15 3130 27 41254 14207 3.3 24 7 2 6 27% 1007 101920 14720 44%
c w 13.48 28 241 0 15 3130 27 41254 14207 3.3 24 7 2 6 27% 1007 101920 14720 44%
c x 13.52 29 241 0 15 3130 27 41254 14207 3.3 24 7 2 6 27% 1007 101912 14720 44%
c = 13.78 29 241 0 15 3130 27 41254 14207 3.3 24 7 2 6 27% 1009 101912 14719 44%
c d 13.78 29 241 0 15 3130 27 41254 14205 3.3 24 7 2 6 27% 1002 101912 14717 44%
c t 13.80 29 241 0 15 3130 27 41254 14205 3.3 24 7 2 6 27% 996 101912 14717 44%
c f 13.81 29 241 0 15 3130 27 41254 14205 3.3 24 7 2 6 27% 1000 101902 14719 44%
c c 13.87 29 241 0 15 3130 27 41254 14203 3.3 24 7 2 6 27% 1002 101894 14718 44%
c d 13.88 29 241 0 15 3130 27 41254 14203 3.3 24 7 2 6 27% 1000 101894 14718 44%
c u 13.94 29 241 0 15 3130 27 41254 13914 3.3 24 7 2 6 27% 1003 101894 14718 44%
c v 14.01 29 241 0 15 3130 27 41254 13066 3.3 24 7 2 6 27% 1005 101894 14718 44%
c
c  seconds   switched     rate         size/glue tier1    binary          remaining
c         MB   reductions   conflicts        size  tier2     irredundant
c           level   restarts      redundant    glue   trail          variables
c
c w 14.20 29 241 0 15 3130 27 41254 13060 3.3 24 7 2 6 27% 1005 101894 14718 44%
c t 14.22 29 241 0 15 3130 27 41254 13060 3.3 24 7 2 6 27% 1003 101894 14718 44%
c - 14.35 29 240 0 16 3173 27 41474 11904 3.3 24 7 2 6 27% 1006 101894 14718 44%
c - 14.86 29 236 0 17 3367 26 45474 13837 3.3 24 7 2 6 26% 1045 101894 14718 44%
c - 15.49 29 234 0 18 3558 25 49597 15763 3.2 23 7 2 6 26% 1117 101894 14718 44%
c s 16.02 29 231 0 18 3752 25 52130 17851 3.3 24 7 2 6 25% 1174 88129 14718 44%
c e 16.11 29 231 0 18 3752 25 52130 17851 3.3 24 7 2 6 25% 1019 88252 14610 43%
c 2 16.11 29 231 0 18 3752 25 52130 17851 3.3 24 7 2 6 25% 1016 88252 14610 43%
c s 16.12 29 231 0 18 3752 25 52130 17851 3.3 24 7 2 6 25% 1019 87976 14610 43%
c e 16.12 29 231 0 18 3752 25 52130 17851 3.3 24 7 2 6 25% 1012 87985 14606 43%
c ^ 16.12 29 231 0 18 3752 25 52130 17851 3.3 24 7 2 6 25% 1012 87985 14606 43%
c - 16.34 29 229 0 19 3848 25 53839 16757 3.2 23 7 2 6 25% 1049 87985 14606 43%
c - 16.94 29 229 0 20 4057 25 58198 18417 3.2 23 7 2 6 24% 1160 87985 14606 43%
c d 17.07 29 229 0 20 4112 25 58881 18703 3.2 23 7 2 6 24% 1052 87985 14547 43%
c u 17.16 29 229 0 20 4112 25 58881 16237 3.2 23 7 2 6 24% 1093 87985 14547 43%
c v 17.23 29 229 0 20 4112 25 58881 14758 3.2 23 7 2 6 24% 1098 87985 14547 43%
c w 17.29 29 229 0 20 4112 25 58881 14732 3.2 23 7 2 6 24% 1098 87985 14547 43%
c = 17.53 29 229 0 20 4112 25 58881 14732 3.2 23 7 2 6 24% 1190 87985 14501 43%
c d 17.53 29 229 0 20 4112 25 58881 14648 3.2 23 7 2 6 24% 1046 87985 14487 43%
c t 17.55 29 229 0 20 4112 25 58881 14648 3.2 23 7 2 6 24% 1039 87985 14487 43%
c
c  seconds   switched     rate         size/glue tier1    binary         remaining
c         MB   reductions   conflicts        size  tier2     irredundant
c           level   restarts      redundant    glue   trail         variables
c
c f 17.57 29 229 0 20 4112 25 58881 14648 3.2 23 7 2 6 24% 1045 87955 14491 43%
c c 17.64 29 229 0 20 4112 25 58881 14517 3.2 23 7 2 6 24% 1126 87527 14438 43%
c d 17.64 29 229 0 20 4112 25 58881 14517 3.2 23 7 2 6 24% 1022 87527 14438 43%
c u 17.71 29 229 0 20 4112 25 58881 14068 3.2 23 7 2 6 24% 1044 87527 14438 43%
c v 17.76 29 229 0 20 4112 25 58881 13764 3.2 23 7 2 6 24% 1048 87527 14438 43%
c w 17.81 29 229 0 20 4112 25 58881 13750 3.2 23 7 2 6 24% 1048 87527 14438 43%
c x 17.86 29 229 0 20 4112 25 58881 13750 3.2 23 7 2 6 24% 1048 87212 14438 43%
c = 18.08 29 229 0 20 4112 25 58881 13750 3.2 23 7 2 6 24% 1070 87212 14427 43%
c d 18.09 29 229 0 20 4112 25 58881 13733 3.2 23 7 2 6 24% 1028 87212 14419 43%
c t 18.10 29 229 0 20 4112 25 58881 13733 3.2 23 7 2 6 24% 1025 87212 14419 43%
c - 18.80 29 225 0 21 4389 24 62670 15683 3.2 23 7 2 5 24% 1054 87212 14419 43%
c - 19.43 29 224 0 22 4601 24 67252 18111 3.2 23 7 2 5 24% 1109 87212 14419 43%
c o 19.95 29 220 0 22 4809 23 70139 20595 3.2 23 7 2 5 24% 1143 87212 14419 43%
c - 20.45 29 221 0 23 5017 24 71943 17889 3.3 23 7 1 5 24% 1165 87212 14419 43%
c - 21.19 29 215 0 24 5295 23 76738 18436 3.2 23 7 1 5 24% 1215 87212 14419 43%
c c 21.64 29 215 0 24 5438 23 79943 21073 3.2 23 7 1 5 24% 1347 86271 14272 42%
c d 21.65 29 215 0 24 5438 23 79943 20592 3.2 23 7 1 5 24% 1053 86271 14272 42%
c u 21.71 29 215 0 24 5438 23 79943 18978 3.2 23 7 1 5 24% 1092 86271 14272 42%
c v 21.80 29 215 0 24 5438 23 79943 16572 3.2 23 7 1 5 24% 1102 86271 14272 42%
c w 21.94 29 215 0 24 5438 23 79943 16350 3.2 23 7 1 5 24% 1104 86271 14272 42%
c
c  seconds   switched     rate         size/glue tier1    binary         remaining
c         MB   reductions   conflicts        size  tier2     irredundant
c           level   restarts      redundant    glue   trail         variables
c
c = 22.25 29 215 0 24 5438 23 79943 16350 3.2 23 7 1 5 24% 1612 86271 14018 42%
c d 22.26 29 215 0 24 5438 23 79943 15744 3.2 23 7 1 5 24% 1009 86271 14010 41%
c t 22.27 29 215 0 24 5438 23 79943 15744 3.2 23 7 1 5 24% 996 86271 14010 41%
c f 22.29 29 215 0 24 5438 23 79943 15744 3.2 23 7 1 5 24% 1002 86247 14012 41%
c c 22.34 29 215 0 24 5438 23 79943 15725 3.2 23 7 1 5 24% 1008 86215 14008 41%
c d 22.35 29 215 0 24 5438 23 79943 15725 3.2 23 7 1 5 24% 1000 86215 14008 41%
c u 22.40 29 215 0 24 5438 23 79943 15298 3.2 23 7 1 5 24% 1002 86215 14008 41%
c v 22.45 29 215 0 24 5438 23 79943 14649 3.2 23 7 1 5 24% 1003 86215 14008 41%
c w 22.54 29 215 0 24 5438 23 79943 14424 3.2 23 7 1 5 24% 1003 86215 14008 41%
c x 22.59 29 215 0 24 5438 23 79943 14424 3.2 23 7 1 5 24% 1003 86128 14008 41%
c t 22.62 29 215 0 24 5438 23 79943 14424 3.2 23 7 1 5 24% 1001 86128 14008 41%
c - 22.97 29 215 0 25 5599 23 81636 13619 3.2 23 7 1 5 24% 1030 86128 14008 41%
c - 24.16 29 212 0 26 6114 23 86636 15646 3.2 23 7 1 5 24% 1084 86128 14008 41%
c - 25.22 29 209 0 27 6696 23 91736 17778 3.2 24 7 1 5 25% 1105 86128 14008 41%
c s 25.77 29 204 0 27 7032 23 95801 21416 3.2 24 7 1 5 24% 1140 84070 14008 41%
c e 25.87 29 204 0 27 7032 23 95801 21416 3.2 24 7 1 5 24% 575 85143 13698 41%
c s 25.87 29 204 0 27 7032 23 95801 21416 3.2 24 7 1 5 24% 580 84653 13698 41%
c e 25.88 29 204 0 27 7032 23 95801 21416 3.2 24 7 1 5 24% 578 84727 13663 40%
c ^ 25.88 29 204 0 27 7032 23 95801 21416 3.2 24 7 1 5 24% 578 84727 13663 40%
c - 25.96 29 207 0 28 7089 23 96932 17909 3.2 24 7 1 5 24% 592 84716 13663 40%
c
c  seconds   switched     rate          size/glue tier1   binary         remaining
c         MB   reductions   conflicts         size  tier2    irredundant
c           level   restarts       redundant    glue   trail        variables
c
c - 26.69 29 201 0 29 7558 23 102223 19287 3.2 24 7 1 5 25% 621 84716 13663 40%
c d 26.92 29 199 0 29 7731 23 104559 21279 3.2 24 7 1 5 25% 615 84716 13644 40%
c u 26.95 29 199 0 29 7731 23 104559 19704 3.2 24 7 1 5 25% 631 84716 13644 40%
c v 27.02 29 199 0 29 7731 23 104559 17023 3.2 24 7 1 5 25% 640 84716 13644 40%
c w 27.10 29 199 0 29 7731 23 104559 16991 3.2 24 7 1 5 25% 640 84716 13644 40%
c x 27.15 29 199 0 29 7731 23 104559 16990 3.2 24 7 1 5 25% 648 84189 13644 40%
c d 27.16 29 199 0 29 7731 23 104559 16980 3.2 24 7 1 5 25% 634 84189 13637 40%
c t 27.16 29 199 0 29 7731 23 104559 16980 3.2 24 7 1 5 25% 614 84189 13637 40%
c f 27.18 29 199 0 29 7731 23 104559 16980 3.2 24 7 1 5 25% 622 84141 13641 40%
c c 27.21 29 199 0 29 7731 23 104559 16958 3.2 24 7 1 5 25% 648 83997 13619 40%
c d 27.22 29 199 0 29 7731 23 104559 16958 3.2 24 7 1 5 25% 612 83997 13619 40%
c u 27.25 29 199 0 29 7731 23 104559 16568 3.2 24 7 1 5 25% 620 83997 13619 40%
c v 27.29 29 199 0 29 7731 23 104559 15975 3.2 24 7 1 5 25% 626 83997 13619 40%
c w 27.38 29 199 0 29 7731 23 104559 15667 3.2 24 7 1 5 25% 626 83997 13619 40%
c x 27.46 29 199 0 29 7731 23 104559 15666 3.2 24 7 1 5 25% 634 83531 13619 40%
c = 27.82 29 199 0 29 7731 23 104559 15666 3.2 24 7 1 5 25% 1212 83507 13330 39%
c d 27.83 29 199 0 29 7731 23 104559 15375 3.2 24 7 1 5 25% 562 83507 13330 39%
c t 27.83 29 199 0 29 7731 23 104559 15375 3.2 24 7 1 5 25% 554 83507 13330 39%
c - 28.20 29 197 0 30 8056 23 107608 15767 3.2 24 7 1 5 25% 567 83507 13330 39%
c o 28.51 29 195 0 30 8310 23 110247 18214 3.2 24 7 1 5 25% 580 83507 13330 39%
c
c  seconds   switched     rate          size/glue tier1   binary         remaining
c         MB   reductions   conflicts         size  tier2    irredundant
c           level   restarts       redundant    glue   trail        variables
c
c - 28.85 29 194 0 31 8579 23 113085 18141 3.2 24 7 1 5 25% 593 83507 13330 39%
c - 29.68 29 191 0 32 9321 24 118652 20182 3.3 25 8 1 5 26% 620 83507 13330 39%
c - 30.31 29 185 0 33 9853 23 124308 21612 3.3 25 8 1 5 25% 687 83507 13330 39%
c - 30.81 29 183 0 34 10262 23 130052 22640 3.2 25 8 1 5 25% 710 83507 13330 39%
c c 31.21 29 182 0 34 10577 23 132813 25175 3.2 25 8 1 5 25% 773 83033 13256 39%
c d 31.21 29 182 0 34 10577 23 132813 24792 3.2 25 8 1 5 25% 625 83033 13256 39%
c u 31.25 29 182 0 34 10577 23 132813 22910 3.2 25 8 1 5 25% 642 83033 13256 39%
c v 31.32 29 182 0 34 10577 23 132813 19841 3.2 25 8 1 5 25% 651 83033 13256 39%
c w 31.47 29 182 0 34 10577 23 132813 19590 3.2 25 8 1 5 25% 651 83033 13256 39%
c = 31.79 29 182 0 34 10577 23 132813 19590 3.2 25 8 1 5 25% 703 83033 13230 39%
c d 31.80 29 182 0 34 10577 23 132813 19576 3.2 25 8 1 5 25% 629 83033 13219 39%
c t 31.80 29 182 0 34 10577 23 132813 19576 3.2 25 8 1 5 25% 626 83033 13219 39%
c c 31.84 29 182 0 34 10577 23 132813 19576 3.2 25 8 1 5 25% 638 82977 13212 39%
c d 31.84 29 182 0 34 10577 23 132813 19533 3.2 25 8 1 5 25% 624 82977 13212 39%
c u 31.87 29 182 0 34 10577 23 132813 19097 3.2 25 8 1 5 25% 627 82977 13212 39%
c v 31.91 29 182 0 34 10577 23 132813 18368 3.2 25 8 1 5 25% 631 82977 13212 39%
c w 32.03 29 182 0 34 10577 23 132813 18132 3.2 25 8 1 5 25% 631 82977 13212 39%
c x 32.08 29 182 0 34 10577 23 132813 18128 3.2 25 8 1 5 25% 637 82814 13212 39%
c d 32.40 29 182 0 34 10577 23 132813 18128 3.2 25 8 1 5 25% 635 82814 13211 39%
c t 32.40 29 182 0 34 10577 23 132813 18128 3.2 25 8 1 5 25% 629 82814 13211 39%
c
c  seconds   switched      rate          size/glue tier1   binary         remaining
c         MB   reductions    conflicts         size  tier2    irredundant
c           level   restarts        redundant    glue   trail        variables
c
c - 32.73 29 181 0 35 10788 23 135882 18202 3.2 25 8 1 5 26% 644 82814 13211 39%
c - 33.43 29 178 0 36 11325 23 141798 20605 3.2 25 8 1 5 26% 654 82813 13211 39%
c - 33.89 29 176 0 37 11682 22 147798 22319 3.2 25 8 1 5 26% 705 82811 13211 39%
c - 34.38 29 170 0 38 12073 21 153885 23697 3.2 25 8 1 5 26% 736 82811 13211 39%
c s 34.72 29 167 0 38 12352 21 157883 27339 3.1 24 8 1 5 26% 761 80861 13211 39%
c e 34.80 29 167 0 38 12352 21 157883 27339 3.1 24 8 1 5 26% 595 91163 11870 35%
c s 34.81 29 167 0 38 12352 21 157883 27339 3.1 24 8 1 5 26% 595 89046 11870 35%
c e 34.83 29 167 0 38 12352 21 157883 27339 3.1 24 8 1 5 26% 595 89074 11864 35%
c ^ 34.83 29 167 0 38 12352 21 157883 27339 3.1 24 8 1 5 26% 595 89074 11864 35%
c - 35.05 29 165 0 39 12485 21 160049 19671 3.1 24 8 1 5 26% 601 89074 11864 35%
c o 35.09 29 166 0 39 12513 21 160258 19870 3.1 24 8 1 5 26% 601 89074 11864 35%
c d 35.58 29 163 0 39 12903 21 164799 24038 3.1 24 8 1 5 26% 609 89069 11858 35%
c u 35.62 29 163 0 39 12903 21 164799 21794 3.1 24 8 1 5 26% 626 89069 11858 35%
c v 35.68 29 163 0 39 12903 21 164799 18858 3.1 24 8 1 5 26% 628 89069 11858 35%
c w 35.78 29 163 0 39 12903 21 164799 18837 3.1 24 8 1 5 26% 628 89069 11858 35%
c x 35.86 29 163 0 39 12903 21 164799 18826 3.1 24 8 1 5 26% 656 88545 11858 35%
c d 35.86 29 163 0 39 12903 21 164799 18818 3.1 24 8 1 5 26% 646 88545 11853 35%
c t 35.87 29 163 0 39 12903 21 164799 18818 3.1 24 8 1 5 26% 597 88545 11853 35%
c c 35.96 29 163 0 39 12903 21 164799 18812 3.1 24 8 1 5 26% 612 88471 11845 35%
c d 35.96 29 163 0 39 12903 21 164799 18812 3.1 24 8 1 5 26% 596 88471 11845 35%
c
c  seconds   switched      rate          size/glue tier1   binary         remaining
c         MB   reductions    conflicts         size  tier2    irredundant
c           level   restarts        redundant    glue   trail        variables
c
c u 35.99 29 163 0 39 12903 21 164799 18371 3.1 24 8 1 5 26% 601 88471 11845 35%
c v 36.03 29 163 0 39 12903 21 164799 17797 3.1 24 8 1 5 26% 601 88471 11845 35%
c w 36.16 29 163 0 39 12903 21 164799 17395 3.1 24 8 1 5 26% 601 88471 11845 35%
c x 36.21 29 163 0 39 12903 21 164799 17390 3.1 24 8 1 5 26% 612 88412 11845 35%
c t 36.61 29 163 0 39 12903 21 164799 17390 3.1 24 8 1 5 26% 600 88412 11845 35%
c - 36.72 29 162 0 40 12972 21 166294 16146 3.1 24 8 1 5 26% 606 88412 11845 35%
c - 37.23 29 159 0 41 13381 20 172619 18829 3.0 24 8 1 5 26% 643 88411 11845 35%
c - 37.63 29 155 0 42 13709 20 179024 20916 3.0 23 8 1 5 26% 676 88407 11845 35%
c - 38.12 29 150 0 43 14183 19 185505 22268 2.9 23 8 1 5 25% 716 88407 11845 35%
c - 38.58 29 146 0 44 14523 18 192062 23537 2.9 22 8 1 5 25% 745 88404 11845 35%
c - 39.04 29 142 0 45 14938 18 198698 24344 2.8 22 8 1 5 25% 798 88404 11845 35%
c d 39.15 29 141 0 45 15041 18 200591 25864 2.8 22 8 1 5 25% 670 88401 11774 35%
c u 39.19 29 141 0 45 15041 18 200591 24092 2.8 22 8 1 5 25% 684 88401 11774 35%
c v 39.27 29 141 0 45 15041 18 200591 20765 2.8 22 8 1 5 25% 694 88401 11774 35%
c w 39.32 29 141 0 45 15041 18 200591 20369 2.8 22 8 1 5 25% 694 88401 11774 35%
c d 39.32 29 141 0 45 15041 18 200591 20361 2.8 22 8 1 5 25% 680 88401 11767 35%
c t 39.33 29 141 0 45 15041 18 200591 20361 2.8 22 8 1 5 25% 670 88401 11767 35%
c u 39.37 29 141 0 45 15041 18 200591 20059 2.8 22 8 1 5 25% 673 88401 11767 35%
c v 39.42 29 141 0 45 15041 18 200591 19283 2.8 22 8 1 5 25% 675 88401 11767 35%
c w 39.46 29 141 0 45 15041 18 200591 19109 2.8 22 8 1 5 25% 675 88401 11767 35%
c
c  seconds   switched      rate          size/glue tier1   binary         remaining
c         MB   reductions    conflicts         size  tier2    irredundant
c           level   restarts        redundant    glue   trail        variables
c
c x 39.51 29 141 0 45 15041 18 200591 19108 2.8 22 8 1 5 25% 680 88367 11767 35%
c d 39.51 29 141 0 45 15041 18 200591 19104 2.8 22 8 1 5 25% 676 88367 11765 35%
c t 39.52 29 141 0 45 15041 18 200591 19104 2.8 22 8 1 5 25% 670 88367 11765 35%
c - 39.78 29 138 0 46 15276 17 205406 19555 2.8 21 8 1 5 25% 707 88367 11765 35%
c - 40.05 29 133 0 47 15562 17 212189 21339 2.7 21 8 1 5 24% 773 88366 11765 35%
c - 40.36 29 129 0 48 15940 16 219044 22644 2.7 21 8 1 5 23% 834 88366 11765 35%
c o 40.40 29 128 0 48 15988 16 220349 23778 2.7 21 8 1 5 23% 843 88366 11765 35%
c - 40.55 29 123 0 49 16158 15 225972 24096 2.7 20 8 1 5 22% 870 88366 11765 35%
c - 40.68 29 117 0 50 16260 14 232972 24959 2.7 20 8 1 5 21% 932 88366 11765 35%
c i 40.70 29 117 0 50 16287 14 233568 25411 2.7 20 8 1 5 21% 945 88366 11764 35%
c i 40.74 29 114 0 50 16325 14 236865 27970 2.6 20 8 1 5 20% 1005 88366 11763 35%
c i 40.75 29 113 0 50 16331 14 237658 28579 2.6 20 8 1 5 20% 1018 88366 11762 35%
c i 40.75 29 113 0 50 16331 14 237784 28631 2.6 20 8 1 5 20% 1028 88366 11761 35%
c i 40.75 29 113 0 50 16331 14 237786 28630 2.6 20 8 1 5 20% 1029 88366 11760 35%
c i 40.75 29 113 0 50 16331 14 237804 28635 2.6 20 8 1 5 20% 1033 88366 11756 35%
c i 40.75 29 113 0 50 16331 14 237806 28635 2.6 20 8 1 5 20% 1033 88366 11755 35%
c i 40.75 29 113 0 50 16331 14 237807 28635 2.6 20 8 1 5 20% 1033 88366 11754 35%
c } 40.75 29 113 0 50 16331 14 237816 28635 2.6 20 8 1 5 20% 1035 88366 11744 35%
c 0 40.75 29 113 0 50 16331 14 237816 28635 2.6 20 8 1 5 20% 1035 88366 11744 35%
c
c ---- [ result ] ------------------------------------------------------------
c
s UNSATISFIABLE
c
c ---- [ profiling ] ---------------------------------------------------------
c
c          29.80   73.12 %  search
c          29.80   73.12 %  focused
c          10.36   25.41 %  simplify
c          10.03   24.61 %  probe
c           4.18   10.25 %  vivify
c           3.66    8.99 %  sweep
c           0.74    1.81 %  congruence
c           0.71    1.75 %  factor
c           0.62    1.53 %  eliminate
c           0.58    1.43 %  substitute
c           0.53    1.30 %  preprocess
c           0.24    0.59 %  reduce
c           0.23    0.56 %  fastel
c           0.10    0.24 %  subsume
c           0.09    0.23 %  transitive
c           0.06    0.15 %  backbone
c           0.04    0.10 %  lucky
c           0.03    0.07 %  parse
c =============================================
c          40.75  100.00 %  total
c
c ---- [ statistics ] --------------------------------------------------------
c
c chronological:                         7001                3 %  conflicts
c conflicts:                           237816             5836.05 per second
c congruent:                             7472               22 %  variables
c decisions:                          4080160               17.16 per conflict
c eliminated:                           12153               36 %  variables
c factored:                              3286               10 %  variables
c fast_eliminated:                       9852               81 %  eliminated
c fast_strengthened:                       11                0 %  per strengthened
c fast_subsumed:                          151                0 %  per subsumed
c iterations:                               9                0 %  variables
c propagations:                     158746279          3895667    per second
c reductions:                              50             4756    interval
c reordered:                                7            33974    interval
c restarts:                             16331               15    interval
c strengthened:                          2715                0 %  checks
c substituted:                          13137               39 %  variables
c subsumed:                             34821                1 %  checks
c switched:                                 0                0    interval
c vivified:                             70338               11 %  checks
c
c ---- [ glue usage ] --------------------------------------------------------
c
c focused glue 1 used 434978 clauses 57.68% accumulated 57.68% tier1
c focused glue 2 used 147485 clauses 19.56% accumulated 77.24%
c focused glue 3 used  53037 clauses  7.03% accumulated 84.27%
c focused glue 4 used  29974 clauses  3.97% accumulated 88.25%
c focused glue 5 used  20418 clauses  2.71% accumulated 90.96% tier2
c
c ---- [ resources ] ---------------------------------------------------------
c
c maximum-resident-set-size:         30023680 bytes         29 MB
c process-time:                            41s              40.75 seconds
c
c ---- [ shutting down ] -----------------------------------------------------
c
c exit 20
